c nIsolatedPIs 0
c maxPI 32
p cnf 166 403
c gate 33 -12 -28 0
-12 -33 0
-28 -33 0
12 28 33 0
c gate 34 12 28 0
12 -34 0
28 -34 0
-12 -28 34 0
c gate 35 -33 -34 0
-33 -35 0
-34 -35 0
33 34 35 0
c gate 36 -11 -27 0
-11 -36 0
-27 -36 0
11 27 36 0
c gate 37 11 27 0
11 -37 0
27 -37 0
-11 -27 37 0
c gate 38 -10 -26 0
-10 -38 0
-26 -38 0
10 26 38 0
c gate 39 9 25 0
9 -39 0
25 -39 0
-9 -25 39 0
c gate 40 10 26 0
10 -40 0
26 -40 0
-10 -26 40 0
c gate 41 -39 -40 0
-39 -41 0
-40 -41 0
39 40 41 0
c gate 42 8 24 0
8 -42 0
24 -42 0
-8 -24 42 0
c gate 43 -8 -24 0
-8 -43 0
-24 -43 0
8 24 43 0
c gate 44 -42 -43 0
-42 -44 0
-43 -44 0
42 43 44 0
c gate 45 7 -23 0
7 -45 0
-23 -45 0
-7 23 45 0
c gate 46 -7 23 0
-7 -46 0
23 -46 0
7 -23 46 0
c gate 47 -45 -46 0
-45 -47 0
-46 -47 0
45 46 47 0
c gate 48 2 18 0
2 -48 0
18 -48 0
-2 -18 48 0
c gate 49 1 17 0
1 -49 0
17 -49 0
-1 -17 49 0
c gate 50 -48 -49 0
-48 -50 0
-49 -50 0
48 49 50 0
c gate 51 -2 -18 0
-2 -51 0
-18 -51 0
2 18 51 0
c gate 52 -3 -19 0
-3 -52 0
-19 -52 0
3 19 52 0
c gate 53 -51 -52 0
-51 -53 0
-52 -53 0
51 52 53 0
c gate 54 -50 53 0
-50 -54 0
53 -54 0
50 -53 54 0
c gate 55 4 20 0
4 -55 0
20 -55 0
-4 -20 55 0
c gate 56 3 19 0
3 -56 0
19 -56 0
-3 -19 56 0
c gate 57 -55 -56 0
-55 -57 0
-56 -57 0
55 56 57 0
c gate 58 -54 57 0
-54 -58 0
57 -58 0
54 -57 58 0
c gate 59 -5 -21 0
-5 -59 0
-21 -59 0
5 21 59 0
c gate 60 -4 -20 0
-4 -60 0
-20 -60 0
4 20 60 0
c gate 61 -59 -60 0
-59 -61 0
-60 -61 0
59 60 61 0
c gate 62 -58 61 0
-58 -62 0
61 -62 0
58 -61 62 0
c gate 63 6 -22 0
6 -63 0
-22 -63 0
-6 22 63 0
c gate 64 -6 22 0
-6 -64 0
22 -64 0
6 -22 64 0
c gate 65 -63 -64 0
-63 -65 0
-64 -65 0
63 64 65 0
c gate 66 5 21 0
5 -66 0
21 -66 0
-5 -21 66 0
c gate 67 -65 -66 0
-65 -67 0
-66 -67 0
65 66 67 0
c gate 68 -62 67 0
-62 -68 0
67 -68 0
62 -67 68 0
c gate 69 -6 -22 0
-6 -69 0
-22 -69 0
6 22 69 0
c gate 70 -68 -69 0
-68 -70 0
-69 -70 0
68 69 70 0
c gate 71 -47 -70 0
-47 -71 0
-70 -71 0
47 70 71 0
c gate 72 44 71 0
44 -72 0
71 -72 0
-44 -71 72 0
c gate 73 -7 -23 0
-7 -73 0
-23 -73 0
7 23 73 0
c gate 74 -42 73 0
-42 -74 0
73 -74 0
42 -73 74 0
c gate 75 -9 -25 0
-9 -75 0
-25 -75 0
9 25 75 0
c gate 76 -43 -75 0
-43 -76 0
-75 -76 0
43 75 76 0
c gate 77 -74 76 0
-74 -77 0
76 -77 0
74 -76 77 0
c gate 78 -72 77 0
-72 -78 0
77 -78 0
72 -77 78 0
c gate 79 41 -78 0
41 -79 0
-78 -79 0
-41 78 79 0
c gate 80 -38 -79 0
-38 -80 0
-79 -80 0
38 79 80 0
c gate 81 -37 -80 0
-37 -81 0
-80 -81 0
37 80 81 0
c gate 82 -36 -81 0
-36 -82 0
-81 -82 0
36 81 82 0
c gate 83 41 -77 0
41 -83 0
-77 -83 0
-41 77 83 0
c gate 84 -36 -38 0
-36 -84 0
-38 -84 0
36 38 84 0
c gate 85 -83 84 0
-83 -85 0
84 -85 0
83 -84 85 0
c gate 86 -82 -85 0
-82 -86 0
-85 -86 0
82 85 86 0
c gate 87 35 -86 0
35 -87 0
-86 -87 0
-35 86 87 0
c gate 88 -45 -63 0
-45 -88 0
-63 -88 0
45 63 88 0
c gate 89 -2 18 0
-2 -89 0
18 -89 0
2 -18 89 0
c gate 90 -1 17 0
-1 -90 0
17 -90 0
1 -17 90 0
c gate 91 -89 -90 0
-89 -91 0
-90 -91 0
89 90 91 0
c gate 92 2 -18 0
2 -92 0
-18 -92 0
-2 18 92 0
c gate 93 3 -19 0
3 -93 0
-19 -93 0
-3 19 93 0
c gate 94 -92 -93 0
-92 -94 0
-93 -94 0
92 93 94 0
c gate 95 -91 94 0
-91 -95 0
94 -95 0
91 -94 95 0
c gate 96 -4 20 0
-4 -96 0
20 -96 0
4 -20 96 0
c gate 97 -3 19 0
-3 -97 0
19 -97 0
3 -19 97 0
c gate 98 -96 -97 0
-96 -98 0
-97 -98 0
96 97 98 0
c gate 99 -95 98 0
-95 -99 0
98 -99 0
95 -98 99 0
c gate 100 5 -21 0
5 -100 0
-21 -100 0
-5 21 100 0
c gate 101 4 -20 0
4 -101 0
-20 -101 0
-4 20 101 0
c gate 102 -100 -101 0
-100 -102 0
-101 -102 0
100 101 102 0
c gate 103 -99 102 0
-99 -103 0
102 -103 0
99 -102 103 0
c gate 104 -5 21 0
-5 -104 0
21 -104 0
5 -21 104 0
c gate 105 65 -104 0
65 -105 0
-104 -105 0
-65 104 105 0
c gate 106 -103 105 0
-103 -106 0
105 -106 0
103 -105 106 0
c gate 107 88 -106 0
88 -107 0
-106 -107 0
-88 106 107 0
c gate 108 -46 -107 0
-46 -108 0
-107 -108 0
46 107 108 0
c gate 109 -44 108 0
-44 -109 0
108 -109 0
44 -108 109 0
c gate 110 -47 106 0
-47 -110 0
106 -110 0
47 -106 110 0
c gate 111 35 82 0
35 -111 0
82 -111 0
-35 -82 111 0
c gate 112 -13 -29 0
-13 -112 0
-29 -112 0
13 29 112 0
c gate 113 13 29 0
13 -113 0
29 -113 0
-13 -29 113 0
c gate 114 -112 -113 0
-112 -114 0
-113 -114 0
112 113 114 0
c gate 115 -14 -30 0
-14 -115 0
-30 -115 0
14 30 115 0
c gate 116 14 30 0
14 -116 0
30 -116 0
-14 -30 116 0
c gate 117 -115 -116 0
-115 -117 0
-116 -117 0
115 116 117 0
c gate 118 114 117 0
114 -118 0
117 -118 0
-114 -117 118 0
c gate 119 -16 -32 0
-16 -119 0
-32 -119 0
16 32 119 0
c gate 120 16 32 0
16 -120 0
32 -120 0
-16 -32 120 0
c gate 121 -119 -120 0
-119 -121 0
-120 -121 0
119 120 121 0
c gate 122 15 -31 0
15 -122 0
-31 -122 0
-15 31 122 0
c gate 123 -15 31 0
-15 -123 0
31 -123 0
15 -31 123 0
c gate 124 -122 -123 0
-122 -124 0
-123 -124 0
122 123 124 0
c gate 125 121 -124 0
121 -125 0
-124 -125 0
-121 124 125 0
c gate 126 118 125 0
118 -126 0
125 -126 0
-118 -125 126 0
c gate 127 111 126 0
111 -127 0
126 -127 0
-111 -126 127 0
c gate 128 87 -106 0
87 -128 0
-106 -128 0
-87 106 128 0
c gate 129 -127 128 0
-127 -129 0
128 -129 0
127 -128 129 0
c gate 130 -110 -129 0
-110 -130 0
-129 -130 0
110 129 130 0
c gate 131 -109 -130 0
-109 -131 0
-130 -131 0
109 130 131 0
c gate 132 44 88 0
44 -132 0
88 -132 0
-44 -88 132 0
c gate 133 108 132 0
108 -133 0
132 -133 0
-108 -132 133 0
c gate 134 -39 -75 0
-39 -134 0
-75 -134 0
39 75 134 0
c gate 135 -38 -40 0
-38 -135 0
-40 -135 0
38 40 135 0
c gate 136 -134 -135 0
-134 -136 0
-135 -136 0
134 135 136 0
c gate 137 109 -136 0
109 -137 0
-136 -137 0
-109 136 137 0
c gate 138 -133 -137 0
-133 -138 0
-137 -138 0
133 137 138 0
c gate 139 -131 138 0
-131 -139 0
138 -139 0
131 -138 139 0
c gate 140 -9 25 0
-9 -140 0
25 -140 0
9 -25 140 0
c gate 141 8 -24 0
8 -141 0
-24 -141 0
-8 24 141 0
c gate 142 -134 -141 0
-134 -142 0
-141 -142 0
134 141 142 0
c gate 143 -109 142 0
-109 -143 0
142 -143 0
109 -142 143 0
c gate 144 -140 -143 0
-140 -144 0
-143 -144 0
140 143 144 0
c gate 145 -36 -37 0
-36 -145 0
-37 -145 0
36 37 145 0
c gate 146 -135 145 0
-135 -146 0
145 -146 0
135 -145 146 0
c gate 147 142 146 0
142 -147 0
146 -147 0
-142 -146 147 0
c gate 148 144 147 0
144 -148 0
147 -148 0
-144 -147 148 0
c gate 149 139 -148 0
139 -149 0
-148 -149 0
-139 148 149 0
c gate 150 -10 26 0
-10 -150 0
26 -150 0
10 -26 150 0
c gate 151 144 -150 0
144 -151 0
-150 -151 0
-144 150 151 0
c gate 152 10 -26 0
10 -152 0
-26 -152 0
-10 26 152 0
c gate 153 -145 -152 0
-145 -153 0
-152 -153 0
145 152 153 0
c gate 154 -151 153 0
-151 -154 0
153 -154 0
151 -153 154 0
c gate 155 -149 -154 0
-149 -155 0
-154 -155 0
149 154 155 0
c gate 156 -35 -114 0
-35 -156 0
-114 -156 0
35 114 156 0
c gate 157 -117 -121 0
-117 -157 0
-121 -157 0
117 121 157 0
c gate 158 124 157 0
124 -158 0
157 -158 0
-124 -157 158 0
c gate 159 156 158 0
156 -159 0
158 -159 0
-156 -158 159 0
c gate 160 154 159 0
154 -160 0
159 -160 0
-154 -159 160 0
c gate 161 -155 -160 0
-155 -161 0
-160 -161 0
155 160 161 0
c gate 162 -68 -71 0
-68 -162 0
-71 -162 0
68 71 162 0
c gate 163 -161 -162 0
-161 -163 0
-162 -163 0
161 162 163 0
c gate 164 -87 163 0
-87 -164 0
163 -164 0
87 -163 164 0
c gate 165 87 161 0
87 -165 0
161 -165 0
-87 -161 165 0
c gate 166 -164 -165 0
-164 -166 0
-165 -166 0
164 165 166 0
c PO
-166 0
